
Gurobi 9.1.1 (mac64, gurobi_cl) logging started Sat Feb 27 19:32:06 2021

Academic license - for non-commercial use only - expires 2021-04-06
Using license file /Users/agnese/gurobi.lic
Set parameter LogFile to value gurobi.log

Gurobi Optimizer version 9.1.1 build v9.1.1rc0 (mac64)
Copyright (c) 2020, Gurobi Optimization, LLC

Read LP format model from file /Users/agnese/Documents/KTH-Work/GitHub_repositories/KTH-dESA/GLUCOSE/results/FINAL_2060/Food/cplex_REMaxCap+HPLL/gurobi/GLUCOSE_FinalFood_REMaxCap+HPLL.lp
Reading time = 0.48 seconds
cost: 55953 rows, 46410 columns, 511722 nonzeros
Thread count: 2 physical cores, 4 logical processors, using up to 4 threads
Optimize a model with 55953 rows, 46410 columns and 511722 nonzeros
Model fingerprint: 0x16c8601b
Coefficient statistics:
  Matrix range     [2e-08, 6e+03]
  Objective range  [7e-08, 4e+11]
  Bounds range     [0e+00, 0e+00]
  RHS range        [1e-04, 1e+06]
Warning: Model contains large objective coefficients
         Consider reformulating model or setting NumericFocus parameter
         to avoid numerical issues.

Concurrent LP optimizer: dual simplex and barrier
Showing barrier log only...

Presolve removed 30245 rows and 28132 columns
Presolve time: 0.20s
Presolved: 25708 rows, 18479 columns, 350759 nonzeros

Ordering time: 0.71s

Barrier statistics:
 AA' NZ     : 1.296e+06
 Factor NZ  : 7.232e+06 (roughly 80 MBytes of memory)
 Factor Ops : 5.673e+09 (less than 1 second per iteration)
 Threads    : 1

                  Objective                Residual
Iter       Primal          Dual         Primal    Dual     Compl     Time
   0   5.03793344e+20 -3.78312836e+17  9.31e+08 2.08e+12  3.51e+16     2s
   1   2.71150428e+20 -5.07263949e+17  9.15e+08 1.98e+12  3.42e+16     2s
   2   2.65513523e+20 -8.73114547e+17  6.85e+08 1.77e+12  2.80e+16     3s
   3   1.25824389e+20 -3.20877351e+18  2.84e+08 5.99e+11  1.41e+16     3s
   4   3.65617915e+19 -3.78971897e+18  8.19e+07 6.61e+10  4.49e+15     4s
   5   2.42270135e+18 -3.04819272e+18  5.32e+06 3.25e+07  3.47e+14     5s
   6   9.14243211e+17 -1.87180319e+18  2.03e+06 1.11e+07  1.41e+14     5s
   7   5.21087244e+17 -1.22660883e+18  1.12e+06 4.38e+06  7.85e+13     6s
   8   8.39077233e+16 -4.74576199e+17  1.81e+05 6.96e+05  1.79e+13     7s
   9   2.02053658e+16 -1.31229325e+17  4.27e+04 1.40e+05  4.57e+12     8s
  10   6.43133453e+15 -3.85855434e+16  1.31e+04 3.38e+04  1.40e+12     8s
  11   3.20339165e+15 -9.27517556e+15  6.39e+03 5.53e+03  4.85e+11     9s
  12   6.24650904e+14 -4.43397547e+15  1.20e+03 2.18e+03  1.45e+11    10s
  13   3.32977367e+14 -2.85270869e+15  6.52e+02 1.32e+03  8.63e+10    10s
  14   4.23191199e+13 -4.64961921e+14  5.35e+01 1.22e+02  1.18e+10    11s
  15   1.93646279e+13 -2.25344961e+14  2.35e+01 5.36e+01  5.54e+09    12s
  16   1.12387867e+12 -2.46869453e+13  3.01e-01 1.33e+00  5.39e+08    12s
  17   9.46224224e+10 -1.16775169e+12  8.00e-03 5.18e-02  2.59e+07    13s
  18   6.54117932e+09 -8.10285623e+10  3.64e-08 2.44e-03  1.79e+06    14s
  19   6.99550847e+08 -5.22777107e+09  9.48e-09 2.44e-04  1.21e+05    14s
  20   9.55491793e+07 -5.19731109e+08  1.99e-09 4.88e-04  1.26e+04    15s
  21   8.64491545e+06 -8.51801105e+07  4.93e-09 3.66e-04  1.92e+03    15s
  22   1.49099468e+06 -1.52867804e+06  5.77e-09 4.88e-04  6.18e+01    16s
  23   5.05937652e+05 -2.12231711e+05  2.19e-09 2.44e-04  1.47e+01    17s
  24   3.47811727e+05  1.50019945e+05  2.27e-09 2.44e-04  4.05e+00    17s
  25   3.17322896e+05  2.11103980e+05  1.59e-09 2.44e-04  2.17e+00    18s
  26   2.96167468e+05  2.32348658e+05  1.80e-09 2.44e-04  1.31e+00    19s
  27   2.84702466e+05  2.40706657e+05  1.06e-09 4.88e-04  9.00e-01    19s
  28   2.71239411e+05  2.49735852e+05  1.20e-09 2.44e-04  4.40e-01    20s
  29   2.66729723e+05  2.51890199e+05  9.17e-10 2.44e-04  3.04e-01    20s
  30   2.58973875e+05  2.57277716e+05  1.81e-09 4.88e-04  3.47e-02    21s
  31   2.58098202e+05  2.57769539e+05  3.18e-08 4.88e-04  6.82e-03    22s
  32   2.57886570e+05  2.57853236e+05  2.25e-08 4.88e-04  8.41e-04    22s
  33   2.57873882e+05  2.57862128e+05  8.94e-09 1.22e-04  3.37e-04    23s
  34   2.57866219e+05  2.57864830e+05  9.08e-09 2.44e-04  1.10e-04    24s

Barrier performed 34 iterations in 23.52 seconds
Barrier solve interrupted - model solved by another algorithm


Solved with dual simplex
Solved in 53125 iterations and 23.53 seconds
Optimal objective  2.578606946e+05

Wrote result file 'Food_gurobi.sol'
Wrote result file 'Food_gurobi.json'

